NAME : mnist2m.pruned_global_16.tour
TYPE : TOUR
DIMENSION : 784
TOUR_SECTION
1
276
277
280
281
284
285
288
289
304
305
308
309
312
313
316
317
318
345
373
374
401
429
457
485
513
541
569
570
571
572
599
600
627
628
655
656
683
684
685
686
687
2
247
248
251
252
255
256
259
260
274
275
278
279
282
283
286
287
302
303
306
307
310
311
314
315
330
331
332
333
334
335
336
337
338
339
340
341
342
343
344
3
220
221
224
225
228
229
232
233
246
249
250
253
254
257
258
261
262
290
291
319
346
347
348
375
402
403
430
431
459
460
461
488
489
516
517
518
519
520
547
548
575
576
603
604
631
632
633
661
662
663
664
665
666
667
668
669
670
671
672
673
674
675
676
677
678
679
680
681
4
191
192
195
196
199
200
203
204
218
219
222
223
226
227
230
231
234
235
263
264
292
293
320
321
322
349
376
377
404
405
432
433
434
435
462
463
490
491
492
493
521
549
577
605
606
634
635
636
637
638
639
640
641
642
643
644
645
646
647
648
649
650
651
652
5
163
164
167
168
171
172
175
176
179
180
181
182
183
210
211
212
239
240
241
268
269
270
297
324
325
352
353
380
381
409
437
438
458
486
487
514
515
542
543
544
545
546
573
574
601
602
629
630
657
658
659
660
688
689
690
691
692
693
694
695
696
697
698
699
700
701
702
703
704
705
706
707
708
709
710
711
712
713
714
715
716
717
718
719
720
721
722
723
724
725
726
727
728
729
730
731
732
733
734
735
736
737
738
739
740
741
742
743
744
745
746
747
748
749
750
751
752
753
754
755
756
757
758
759
760
761
762
763
764
765
766
767
768
769
770
771
772
773
774
775
776
777
778
779
780
781
782
783
784
6
133
134
137
138
141
142
145
146
149
150
161
162
165
166
169
170
173
174
177
178
190
193
194
197
198
201
202
205
206
207
208
209
236
237
238
265
266
267
294
295
296
323
350
351
378
379
406
407
408
436
464
465
466
494
522
550
578
579
607
608
609
610
611
612
613
614
615
616
617
618
619
620
621
622
623
624
7
132
135
136
139
140
143
144
147
148
151
152
153
154
155
156
157
184
185
213
214
242
243
271
298
299
326
327
354
382
410
411
439
467
495
523
551
552
553
554
555
556
557
558
559
560
561
562
563
564
565
566
567
568
580
581
582
583
584
585
586
587
588
589
590
591
592
593
594
595
596
597
598
625
626
653
654
682
8
11
12
15
16
19
20
23
24
27
28
31
32
35
36
39
40
43
44
47
48
51
52
55
56
59
60
63
64
67
68
71
72
75
76
79
80
83
84
87
88
91
92
95
96
99
100
103
104
107
108
111
112
115
116
119
120
123
124
131
159
160
188
189
217
245
273
301
329
356
357
358
359
360
361
362
363
364
365
366
367
368
369
370
371
372
385
386
387
388
389
390
391
392
393
394
395
396
397
398
399
400
413
414
415
416
417
418
419
420
421
422
423
424
425
426
427
428
441
442
443
444
445
446
447
448
449
450
451
452
453
454
455
456
469
470
471
472
473
474
475
476
477
478
479
480
481
482
483
484
497
498
499
500
501
502
503
504
505
506
507
508
509
510
511
512
9
10
13
14
17
18
21
22
25
26
29
30
33
34
37
38
41
42
45
46
49
50
53
54
57
58
61
62
65
66
69
70
73
74
77
78
81
82
85
86
89
90
93
94
97
98
101
102
105
106
109
110
113
114
117
118
121
122
125
126
127
128
129
130
158
186
187
215
216
244
272
300
328
355
383
384
412
440
468
496
524
525
526
527
528
529
530
531
532
533
534
535
536
537
538
539
540
-1
EOF
